NAME: tsp30-16
TYPE: TSP
DIMENSION: 30
EDGE_WEIGHT_TYPE: EUC_2D
NODE_COORD_SECTION
0 96 14
1 92 83
2 99 69
3 90 72
4 50 55
5 65 56
6 80 81
7 28 19
8 25 89
9 44 33
10 38 55
11 60 52
12 46 37
13 64 87
14 53 38
15 43 55
16 93 86
17 73 60
18 63 95
19 16 85
20 100 46
21 15 11
22 94 52
23 7 75
24 16 83
25 44 9
26 48 9
27 38 5
28 95 12
29 74 35
EOF